qbf_easy_train/easy_909_UNSAT.qdimacs
p cnf 22 52
a 18 10 14 0
e 1 2 3 4 5 6 7 8 9 11 12 13 15 16 17 19 20 21 22 0
-4 2 0
-4 -3 0
-2 3 4 0
1 -4 -5 0
-1 4 -5 0
1 4 5 0
-1 -4 5 0
8 -6 0
8 -7 0
6 7 -8 0
-10 8 0
-10 9 0
-8 -9 10 0
11 5 0
11 -10 0
-5 10 -11 0
-13 -12 0
-13 2 0
12 -2 13 0
3 2 -14 0
-3 -2 -14 0
3 -2 14 0
-3 2 14 0
-15 13 0
-15 -14 0
-13 14 15 0
16 -11 0
16 15 0
11 -15 -16 0
-3 9 -17 0
3 -9 -17 0
-3 -9 17 0
3 9 17 0
18 17 0
18 2 0
-17 -2 -18 0
-19 -2 -20 0
19 2 -20 0
-19 2 20 0
19 -2 20 0
-21 -18 0
-21 -20 0
18 20 21 0
22 -16 0
22 21 0
16 -21 -22 0
21 10 -11 -13 22 -12 0
13 9 -5 14 -18 -10 -17 11 0
-14 3 12 13 0
4 -7 -15 -19 -18 -10 13 0
-21 -3 16 17 14 -19 0
22 0
