sat_easy_train/easy_909_UNSAT.dimacs
p cnf 140 476
-4 -2 0
-4 3 0
2 -3 4 0
5 1 0
5 -4 0
-1 4 -5 0
-1 5 -6 0
1 -5 -6 0
-1 -5 6 0
1 5 6 0
-7 -8 -9 0
7 8 -9 0
-7 8 9 0
7 -8 9 0
-10 -6 0
-10 -9 0
6 9 10 0
-11 10 0
-11 -5 0
-10 5 11 0
13 -3 0
13 -12 0
3 12 -13 0
-17 -15 0
-17 16 0
15 -16 17 0
-18 17 0
-18 -7 0
-17 7 18 0
-19 18 0
-19 -4 0
-18 4 19 0
-14 19 -20 0
14 -19 -20 0
-14 -19 20 0
14 19 20 0
21 -4 0
21 -20 0
4 20 -21 0
13 21 -22 0
-13 -21 -22 0
13 -21 22 0
-13 21 22 0
-11 -22 -23 0
11 22 -23 0
-11 22 23 0
11 -22 23 0
-12 -1 -24 0
12 1 -24 0
-12 1 24 0
12 -1 24 0
-25 -24 0
-25 4 0
24 -4 25 0
26 7 0
26 25 0
-7 -25 -26 0
28 -2 0
28 -27 0
2 27 -28 0
-29 -6 0
-29 -28 0
6 28 29 0
-11 4 -30 0
11 -4 -30 0
-11 -4 30 0
11 4 30 0
-31 29 0
-31 -30 0
-29 30 31 0
-32 28 0
-32 11 0
-28 -11 32 0
-31 -32 -33 0
31 32 -33 0
-31 32 33 0
31 -32 33 0
34 26 0
34 -33 0
-26 33 -34 0
-35 23 0
-35 34 0
-23 -34 35 0
-36 -10 0
-36 -27 0
10 27 36 0
36 -9 -37 0
-36 9 -37 0
36 9 37 0
-36 -9 37 0
-38 -35 0
-38 -37 0
35 37 38 0
40 39 0
40 -6 0
-39 6 -40 0
43 9 0
43 -9 0
8 -24 -44 0
-8 24 -44 0
8 24 44 0
-8 -24 44 0
45 44 0
45 6 0
-44 -6 -45 0
-43 -45 -46 0
43 45 -46 0
-43 45 46 0
43 -45 46 0
47 -42 0
47 -46 0
42 46 -47 0
48 -41 0
48 -47 0
41 47 -48 0
-49 -14 0
-49 -27 0
14 27 49 0
-51 14 0
-51 -50 0
-14 50 51 0
52 -49 0
52 51 0
49 -51 -52 0
-12 39 -53 0
12 -39 -53 0
-12 -39 53 0
12 39 53 0
1 -53 -54 0
-1 53 -54 0
1 53 54 0
-1 -53 54 0
-42 24 -55 0
42 -24 -55 0
-42 -24 55 0
42 24 55 0
55 42 -56 0
-55 -42 -56 0
55 -42 56 0
-55 42 56 0
57 -54 0
57 56 0
54 -56 -57 0
-52 57 -58 0
52 -57 -58 0
-52 -57 58 0
52 57 58 0
59 -48 0
59 -58 0
48 58 -59 0
5 -11 -60 0
-5 11 -60 0
5 11 60 0
-5 -11 60 0
-43 60 -61 0
43 -60 -61 0
-43 -60 61 0
43 60 61 0
-62 -8 0
-62 44 0
8 -44 62 0
63 62 0
63 -16 0
-62 16 -63 0
-64 43 0
-64 33 0
-43 -33 64 0
65 63 0
65 64 0
-63 -64 -65 0
66 65 0
66 -53 0
-65 53 -66 0
67 33 0
67 31 0
-33 -31 -67 0
-68 66 0
-68 67 0
-66 -67 68 0
-69 61 0
-69 -68 0
-61 68 69 0
-70 -59 0
-70 -69 0
59 69 70 0
-71 -40 0
-71 70 0
40 -70 71 0
72 14 0
72 -24 0
-14 24 -72 0
-73 -25 0
-73 16 0
25 -16 73 0
74 -11 0
74 73 0
11 -73 -74 0
-75 -72 0
-75 74 0
72 -74 75 0
-76 27 0
-76 -28 0
-27 28 76 0
-78 76 0
-78 -77 0
-76 77 78 0
75 78 -79 0
-75 -78 -79 0
75 -78 79 0
-75 78 79 0
80 63 0
80 -27 0
-63 27 -80 0
81 -15 0
81 -80 0
15 80 -81 0
-83 82 0
-83 2 0
-82 -2 83 0
-62 83 -84 0
62 -83 -84 0
-62 -83 84 0
62 83 84 0
-85 -81 0
-85 -84 0
81 84 85 0
86 76 0
86 -18 0
-76 18 -86 0
87 86 0
87 -86 0
-76 28 -88 0
76 -28 -88 0
-76 -28 88 0
76 28 88 0
89 -78 0
89 65 0
78 -65 -89 0
89 -43 -90 0
-89 43 -90 0
89 43 90 0
-89 -43 90 0
-91 -88 0
-91 90 0
88 -90 91 0
87 91 -92 0
-87 -91 -92 0
87 -91 92 0
-87 91 92 0
85 92 -93 0
-85 -92 -93 0
85 -92 93 0
-85 92 93 0
94 -31 0
94 27 0
31 -27 -94 0
95 94 0
95 -20 0
-94 20 -95 0
-96 -93 0
-96 -95 0
93 95 96 0
-97 79 0
-97 96 0
-79 -96 97 0
33 15 -98 0
-33 -15 -98 0
33 -15 98 0
-33 15 98 0
15 9 -99 0
-15 -9 -99 0
15 -9 99 0
-15 9 99 0
100 12 0
100 -3 0
-12 3 -100 0
101 50 0
101 100 0
-50 -100 -101 0
99 -101 -102 0
-99 101 -102 0
99 101 102 0
-99 -101 102 0
-103 -98 0
-103 102 0
98 -102 103 0
-104 73 0
-104 16 0
-73 -16 104 0
-105 103 0
-105 -104 0
-103 104 105 0
106 97 0
106 -105 0
-97 105 -106 0
94 -15 -107 0
-94 15 -107 0
94 15 107 0
-94 -15 107 0
108 -106 0
108 -107 0
106 107 -108 0
109 -71 0
109 108 0
71 -108 -109 0
-110 -88 0
-110 -77 0
88 77 110 0
-111 -75 0
-111 -43 0
75 43 111 0
-112 -110 0
-112 111 0
110 -111 112 0
113 10 0
113 30 0
-10 -30 -113 0
-31 113 -114 0
31 -113 -114 0
-31 -113 114 0
31 113 114 0
-112 -114 -115 0
112 114 -115 0
-112 114 115 0
112 -114 115 0
62 16 -116 0
-62 -16 -116 0
62 -16 116 0
-62 16 116 0
-44 116 -117 0
44 -116 -117 0
-44 -116 117 0
44 116 117 0
117 -28 -118 0
-117 28 -118 0
117 28 118 0
-117 -28 118 0
-25 28 -119 0
25 -28 -119 0
-25 -28 119 0
25 28 119 0
118 -119 -120 0
-118 119 -120 0
118 119 120 0
-118 -119 120 0
121 6 0
121 13 0
-6 -13 -121 0
122 -3 0
122 -63 0
3 63 -122 0
-123 -122 0
-123 83 0
122 -83 123 0
-124 -3 0
-124 -7 0
3 7 124 0
6 12 -125 0
-6 -12 -125 0
6 -12 125 0
-6 12 125 0
-126 -124 0
-126 -125 0
124 125 126 0
-12 -126 -127 0
12 126 -127 0
-12 126 127 0
12 -126 127 0
128 -77 0
128 30 0
77 -30 -128 0
-129 15 0
-129 94 0
-15 -94 129 0
129 -16 -130 0
-129 16 -130 0
129 16 130 0
-129 -16 130 0
128 130 -131 0
-128 -130 -131 0
128 -130 131 0
-128 130 131 0
-127 -131 -132 0
127 131 -132 0
-127 131 132 0
127 -131 132 0
-133 -123 0
-133 -132 0
123 132 133 0
-121 -133 -134 0
121 133 -134 0
-121 133 134 0
121 -133 134 0
20 -13 -135 0
-20 13 -135 0
20 13 135 0
-20 -13 135 0
-136 -134 0
-136 -135 0
134 135 136 0
-137 -120 0
-137 -136 0
120 136 137 0
-138 -115 0
-138 -137 0
115 137 138 0
109 138 -139 0
-109 -138 -139 0
109 -138 139 0
-109 138 139 0
-140 -38 0
-140 -139 0
38 139 140 0
-24 80 -89 0
140 -119 45 -78 108 -21 0
132 -5 -17 15 -50 -105 0
-13 -66 -42 63 135 11 0
103 38 0
-36 -18 -107 51 47 -58 0
120 79 -124 66 0
88 40 41 0
-1 -93 -120 -118 -139 0
-131 -62 -3 110 -83 0
-20 44 -11 73 0
138 -139 0
10 -72 -138 0
-23 121 -56 135 106 -138 0
75 -113 0
134 72 40 -71 0
-134 8 -82 71 0
-114 -65 -63 6 0
90 -11 -107 0
-20 72 0
86 -5 -2 -46 0
9 61 -111 -94 0
-43 -50 71 104 74 0
132 -88 72 0
5 -19 -98 -4 73 0
-109 -122 0
102 -73 22 -72 -57 0
60 42 -32 64 -63 0
-115 -131 -31 124 -63 0
33 -98 0
-98 -29 0
80 27 -110 73 0
103 -31 -43 33 7 128 0
66 135 -57 -7 26 0
48 -118 0
34 -133 29 124 0
-113 -138 0
19 -42 -12 -38 29 0
-76 75 101 110 33 42 0
101 -19 0
-72 101 -2 118 43 -81 0
-66 44 0
-92 -76 0
-3 8 138 26 -114 0
-111 100 0
-71 -26 47 48 0
10 -100 -8 -14 134 0
72 -37 62 -121 -130 134 0
111 -107 -51 0
-45 -116 129 0
-29 10 48 -47 -77 0
-94 30 10 -68 126 0
-10 -98 -78 -17 0
123 91 76 0
-26 4 -71 -15 48 0
-64 -55 107 -94 -80 0
-127 -28 -71 120 0
-15 62 136 40 -13 0
-90 124 -75 87 0
38 -135 29 32 -90 0
19 125 -22 31 -54 0
45 -112 -86 0
140 0
